c File: flat30_3_0.col
c
c SOURCE: Joseph Culberson (joe@cs.ualberta.ca)
c DESCRIPTION: Quasi-random coloring problem
c              generated with flatness = 0
c                             probability = 0.200
c                             known coloring = 3
c                             random seed = 232427
c              Creation Date:  Fri Nov 29 22:01:57 1996
c Maximum degree = 6 Minimum degree = 1
c
c cnf created by edge2cnf
p cnf 90 300
-1 -2 0
-1 -3 0
-2 -3 0
1 2 3 0
-4 -5 0
-4 -6 0
-5 -6 0
4 5 6 0
-7 -8 0
-7 -9 0
-8 -9 0
7 8 9 0
-10 -11 0
-10 -12 0
-11 -12 0
10 11 12 0
-13 -14 0
-13 -15 0
-14 -15 0
13 14 15 0
-16 -17 0
-16 -18 0
-17 -18 0
16 17 18 0
-19 -20 0
-19 -21 0
-20 -21 0
19 20 21 0
-22 -23 0
-22 -24 0
-23 -24 0
22 23 24 0
-25 -26 0
-25 -27 0
-26 -27 0
25 26 27 0
-28 -29 0
-28 -30 0
-29 -30 0
28 29 30 0
-31 -32 0
-31 -33 0
-32 -33 0
31 32 33 0
-34 -35 0
-34 -36 0
-35 -36 0
34 35 36 0
-37 -38 0
-37 -39 0
-38 -39 0
37 38 39 0
-40 -41 0
-40 -42 0
-41 -42 0
40 41 42 0
-43 -44 0
-43 -45 0
-44 -45 0
43 44 45 0
-46 -47 0
-46 -48 0
-47 -48 0
46 47 48 0
-49 -50 0
-49 -51 0
-50 -51 0
49 50 51 0
-52 -53 0
-52 -54 0
-53 -54 0
52 53 54 0
-55 -56 0
-55 -57 0
-56 -57 0
55 56 57 0
-58 -59 0
-58 -60 0
-59 -60 0
58 59 60 0
-61 -62 0
-61 -63 0
-62 -63 0
61 62 63 0
-64 -65 0
-64 -66 0
-65 -66 0
64 65 66 0
-67 -68 0
-67 -69 0
-68 -69 0
67 68 69 0
-70 -71 0
-70 -72 0
-71 -72 0
70 71 72 0
-73 -74 0
-73 -75 0
-74 -75 0
73 74 75 0
-76 -77 0
-76 -78 0
-77 -78 0
76 77 78 0
-79 -80 0
-79 -81 0
-80 -81 0
79 80 81 0
-82 -83 0
-82 -84 0
-83 -84 0
82 83 84 0
-85 -86 0
-85 -87 0
-86 -87 0
85 86 87 0
-88 -89 0
-88 -90 0
-89 -90 0
88 89 90 0
-43 -1 0
-44 -2 0
-45 -3 0
-52 -1 0
-53 -2 0
-54 -3 0
-64 -1 0
-65 -2 0
-66 -3 0
-70 -1 0
-71 -2 0
-72 -3 0
-82 -1 0
-83 -2 0
-84 -3 0
-43 -4 0
-44 -5 0
-45 -6 0
-55 -4 0
-56 -5 0
-57 -6 0
-61 -4 0
-62 -5 0
-63 -6 0
-31 -7 0
-32 -8 0
-33 -9 0
-46 -7 0
-47 -8 0
-48 -9 0
-49 -7 0
-50 -8 0
-51 -9 0
-70 -7 0
-71 -8 0
-72 -9 0
-82 -7 0
-83 -8 0
-84 -9 0
-55 -10 0
-56 -11 0
-57 -12 0
-67 -10 0
-68 -11 0
-69 -12 0
-73 -10 0
-74 -11 0
-75 -12 0
-34 -13 0
-35 -14 0
-36 -15 0
-46 -13 0
-47 -14 0
-48 -15 0
-52 -13 0
-53 -14 0
-54 -15 0
-64 -13 0
-65 -14 0
-66 -15 0
-79 -13 0
-80 -14 0
-81 -15 0
-85 -13 0
-86 -14 0
-87 -15 0
-43 -16 0
-44 -17 0
-45 -18 0
-49 -16 0
-50 -17 0
-51 -18 0
-85 -16 0
-86 -17 0
-87 -18 0
-31 -19 0
-32 -20 0
-33 -21 0
-34 -19 0
-35 -20 0
-36 -21 0
-49 -19 0
-50 -20 0
-51 -21 0
-85 -19 0
-86 -20 0
-87 -21 0
-34 -22 0
-35 -23 0
-36 -24 0
-46 -22 0
-47 -23 0
-48 -24 0
-52 -22 0
-53 -23 0
-54 -24 0
-82 -22 0
-83 -23 0
-84 -24 0
-61 -25 0
-62 -26 0
-63 -27 0
-67 -25 0
-68 -26 0
-69 -27 0
-76 -25 0
-77 -26 0
-78 -27 0
-31 -28 0
-32 -29 0
-33 -30 0
-73 -28 0
-74 -29 0
-75 -30 0
-76 -28 0
-77 -29 0
-78 -30 0
-88 -28 0
-89 -29 0
-90 -30 0
-61 -31 0
-62 -32 0
-63 -33 0
-73 -31 0
-74 -32 0
-75 -33 0
-70 -34 0
-71 -35 0
-72 -36 0
-64 -37 0
-65 -38 0
-66 -39 0
-73 -37 0
-74 -38 0
-75 -39 0
-88 -37 0
-89 -38 0
-90 -39 0
-64 -40 0
-65 -41 0
-66 -42 0
-82 -40 0
-83 -41 0
-84 -42 0
-67 -43 0
-68 -44 0
-69 -45 0
-82 -43 0
-83 -44 0
-84 -45 0
-61 -46 0
-62 -47 0
-63 -48 0
-64 -46 0
-65 -47 0
-66 -48 0
-79 -46 0
-80 -47 0
-81 -48 0
-61 -49 0
-62 -50 0
-63 -51 0
-67 -49 0
-68 -50 0
-69 -51 0
-82 -49 0
-83 -50 0
-84 -51 0
-67 -55 0
-68 -56 0
-69 -57 0
-76 -55 0
-77 -56 0
-78 -57 0
-79 -55 0
-80 -56 0
-81 -57 0
-79 -58 0
-80 -59 0
-81 -60 0
